40
457
4
74
33
75
71
0 2
0 3
0 5
0 7
0 8
0 9
0 10
0 12
0 13
0 16
0 19
0 20
0 21
0 22
0 23
0 24
0 25
0 26
0 29
0 30
0 31
0 32
0 33
0 34
0 39
1 2
1 3
1 4
1 5
1 6
1 8
1 10
1 11
1 14
1 15
1 18
1 19
1 20
1 21
1 23
1 27
1 28
1 29
1 30
1 31
1 33
1 35
1 37
2 4
2 5
2 6
2 7
2 9
2 10
2 12
2 15
2 16
2 17
2 18
2 20
2 21
2 23
2 24
2 25
2 28
2 29
2 30
2 32
2 33
2 34
2 35
2 36
2 39
3 5
3 9
3 12
3 13
3 17
3 18
3 19
3 20
3 21
3 22
3 23
3 24
3 27
3 28
3 30
3 31
3 32
3 33
3 34
3 38
3 39
4 5
4 6
4 7
4 8
4 11
4 13
4 14
4 15
4 16
4 17
4 18
4 20
4 21
4 23
4 25
4 26
4 27
4 29
4 31
4 32
4 34
4 36
4 37
5 6
5 8
5 9
5 10
5 11
5 12
5 13
5 14
5 17
5 19
5 21
5 22
5 23
5 24
5 25
5 27
5 28
5 29
5 31
5 34
5 35
5 37
5 38
6 7
6 8
6 10
6 12
6 13
6 14
6 15
6 16
6 19
6 21
6 25
6 26
6 27
6 30
6 31
6 32
6 35
6 36
6 39
7 8
7 9
7 12
7 13
7 15
7 17
7 18
7 20
7 21
7 23
7 24
7 25
7 26
7 29
7 31
7 34
7 36
7 38
8 11
8 12
8 13
8 14
8 15
8 16
8 17
8 19
8 20
8 24
8 25
8 27
8 28
8 30
8 33
8 34
8 35
8 36
8 37
9 11
9 13
9 14
9 16
9 18
9 19
9 22
9 24
9 25
9 26
9 31
9 32
9 33
9 34
9 36
9 39
10 11
10 12
10 13
10 14
10 16
10 17
10 18
10 19
10 20
10 22
10 23
10 25
10 27
10 28
10 29
10 32
10 35
10 36
10 37
10 38
10 39
11 12
11 14
11 18
11 21
11 24
11 25
11 27
11 30
11 31
11 39
12 13
12 14
12 15
12 18
12 19
12 20
12 21
12 22
12 23
12 24
12 29
12 31
12 33
12 34
12 35
12 37
12 38
12 39
13 14
13 15
13 18
13 20
13 21
13 22
13 23
13 24
13 26
13 27
13 29
13 33
13 35
13 36
13 39
14 15
14 17
14 18
14 22
14 24
14 27
14 29
14 30
14 32
14 33
14 35
14 37
14 38
14 39
15 17
15 19
15 24
15 25
15 31
15 36
15 37
15 38
16 17
16 18
16 21
16 23
16 24
16 25
16 29
16 30
16 31
16 32
16 33
16 34
16 35
16 36
17 18
17 20
17 21
17 22
17 23
17 25
17 26
17 27
17 35
17 36
18 21
18 23
18 24
18 25
18 27
18 31
18 33
18 34
18 35
18 36
18 38
18 39
19 21
19 22
19 25
19 27
19 32
19 33
19 34
19 36
19 37
19 38
19 39
20 21
20 22
20 26
20 27
20 29
20 30
20 33
20 36
20 38
20 39
21 24
21 25
21 26
21 28
21 29
21 30
21 31
21 32
21 33
21 34
21 36
21 38
21 39
22 24
22 25
22 27
22 29
22 31
22 33
22 34
22 35
22 36
22 37
22 38
23 24
23 26
23 28
23 30
23 31
23 32
23 33
23 36
23 38
23 39
24 25
24 28
24 29
24 30
24 32
24 34
24 36
24 37
24 38
25 27
25 30
25 31
25 32
25 33
25 34
25 35
25 36
26 28
26 31
26 32
26 33
26 35
26 36
26 39
27 30
27 31
27 32
27 33
27 37
28 30
28 33
28 34
28 36
28 37
28 38
29 30
29 33
29 37
29 38
30 34
30 35
30 36
30 37
30 38
30 39
31 33
31 37
31 38
32 33
32 34
32 35
32 36
32 37
32 38
32 39
33 34
33 36
33 38
34 37
34 38
34 39
35 36
35 37
35 38
35 39
36 38
37 38
38 39
25 5 26 16 32 28 21 8 36 23 1 33
13 39 2 15 18 27 20 17 19 29 12 38
10 35 4 31 30 3 37 0 7 24 11 9
22 14 6 34
